21814.0
13,1637,221,957,354,780,753,1755,1926,1211,1062,789,166,585,424,724,1053,801,165,546,1386,237,141,204,1601,1933,1286,451,708,1105,113,230,74,851,271,60,273,233,855,1141,483,1540,637,1877,1835,842,1567,909,1774,1615,292,849,1623,694,1849,432,764,1491,1385,1984,574,1397,1958,384,1561,265,562,1695,157,1486,1617,498,1890,505,1978,1644,1406,1968,323,1224,1689,1660,1472,475,668,96,1149,1267,1353,1834,721,1474,85,1451,1198,707,1464,659,1351,307,1196,1599,895,1731,242,20,1193,423,1733,1206,1899,883,169,268,1146,1273,29,852,12,946
